16
Lattice="7.4673323400 0.0000000000 0.0000000000 -3.7336661700 6.4668995049 0.0000000000 0.0000000000 0.0000000000 5.1194230000" Properties=species:S:1:pos:R:3 pbc="T T T"
   Ti  3.7336662073  2.1556331468  2.5597115000
   Ti  -0.0000000373  4.3112663582  0.0000000000
   Ti  -0.0000000373  4.3112663582  2.5597115000
   Ti  3.7336662073  2.1556331468  0.0000000000
   Ti  -2.7982595834  4.8467277713  3.8395672500
   Ti  1.8708131731  0.0000000000  1.2798557500
   Ti  2.7982595834  4.8467277713  1.2798557500
   Ti  0.9354065866  1.6201717337  3.8395672500
   Ti  5.5965191669  0.0000000000  3.8395672500
   Ti  -0.9354065866  1.6201717337  1.2798557500
   Si  -1.4630818927  2.5341321738  3.8395672500
   Si  4.5411685546  0.0000000000  1.2798557500
   Si  1.4630818927  2.5341321738  1.2798557500
   Si  2.2705842773  3.9327673311  3.8395672500
   Si  2.9261637854  0.0000000000  3.8395672500
   Si  -2.2705842773  3.9327673311  1.2798557500
