12
Lattice="3.5591680000 0.0000000000 0.0000000000 0.0000000000 13.4980660000 0.0000000000 0.0000000000 0.0000000000 3.5718080000" Properties=species:S:1:pos:R:3 pbc="T T T"
   Ti  1.7795840000  8.1359727796  2.6788560000
   Ti  0.0000000000  12.1111262204  0.8929520000
   Ti  0.0000000000  1.3869397796  2.6788560000
   Ti  1.7795840000  5.3620932204  0.8929520000
   Si  1.7795840000  12.6912865952  2.6788560000
   Si  0.0000000000  7.5558124048  0.8929520000
   Si  0.0000000000  10.1256417002  2.6788560000
   Si  1.7795840000  10.1214572998  0.8929520000
   Si  0.0000000000  5.9422535952  2.6788560000
   Si  1.7795840000  0.8067794048  0.8929520000
   Si  1.7795840000  3.3766087002  2.6788560000
   Si  0.0000000000  3.3724242998  0.8929520000
