8
Lattice="3.6417350000 0.0000000000 0.0000000000 0.0000000000 5.0107990000 0.0000000000 0.0000000000 0.0000000000 6.5445560000" Properties=species:S:1:pos:R:3 pbc="T T T"
   Ti  0.9104337500  1.8637115693  4.4211028157
   Ti  2.7313012500  3.1470874307  2.1234531843
   Ti  2.7313012500  4.3691110693  5.3957311843
   Ti  0.9104337500  0.6416879307  1.1488248157
   Si  0.9104337500  4.2804900781  3.5655526435
   Si  2.7313012500  0.7303089219  2.9790033565
   Si  2.7313012500  1.7750905781  6.2512813565
   Si  0.9104337500  3.2357084219  0.2932746435
