24
Lattice="4.8085060000 0.0000000000 0.0000000000 0.0000000000 8.2604900000 0.0000000000 0.0000000000 0.0000000000 8.5671820000" Properties=species:S:1:pos:R:3 pbc="T T T"
   Ti  3.6063795000  6.1953675000  2.1417955000
   Ti  0.0000000000  0.0000000000  0.0000000000
   Ti  3.6063795000  2.0651225000  6.4253865000
   Ti  0.0000000000  4.1302450000  4.2835910000
   Ti  1.2021265000  6.1953675000  6.4253865000
   Ti  2.4042530000  0.0000000000  4.2835910000
   Ti  1.2021265000  2.0651225000  2.1417955000
   Ti  2.4042530000  4.1302450000  0.0000000000
   Si  3.6063795000  3.4143413737  2.1417955000
   Si  3.6063795000  0.7159036263  2.1417955000
   Si  2.4042530000  6.9112711263  0.0000000000
   Si  2.4042530000  1.3492188737  0.0000000000
   Si  3.6063795000  7.5445863737  6.4253865000
   Si  3.6063795000  4.8461486263  6.4253865000
   Si  2.4042530000  2.7810261263  4.2835910000
   Si  2.4042530000  5.4794638737  4.2835910000
   Si  1.2021265000  3.4143413737  6.4253865000
   Si  1.2021265000  0.7159036263  6.4253865000
   Si  0.0000000000  6.9112711263  4.2835910000
   Si  0.0000000000  1.3492188737  4.2835910000
   Si  1.2021265000  7.5445863737  2.1417955000
   Si  1.2021265000  4.8461486263  2.1417955000
   Si  0.0000000000  2.7810261263  0.0000000000
   Si  0.0000000000  5.4794638737  0.0000000000
