432
Lattice="17.7000000000 0.0000000000 0.0000000000 0.0000000000 15.3286496470 0.0000000000 0.0000000000 0.0000000000 45.6790072249" Properties=species:S:1:pos:R:3 pbc="T T T"
    Ti 0.0000000000 0.0000000000 18.9790083779
    Ti 2.9500000000 0.0000000000 18.9790083779
    Ti 5.9000000000 0.0000000000 18.9790083779
    Ti 8.8500000000 0.0000000000 18.9790083779
    Ti 11.8000000000 0.0000000000 18.9790083779
    Ti 14.7500000000 0.0000000000 18.9790083779
    Ti 1.4750000000 2.5547750000 18.9790083779
    Ti 4.4250000000 2.5547750000 18.9790083779
    Ti 7.3750000000 2.5547750000 18.9790083779
    Ti 10.3250000000 2.5547750000 18.9790083779
    Ti 13.2750000000 2.5547750000 18.9790083779
    Ti 16.2250000000 2.5547750000 18.9790083779
    Ti 0.0000000000 5.1095500000 18.9790083779
    Ti 2.9500000000 5.1095500000 18.9790083779
    Ti 5.9000000000 5.1095500000 18.9790083779
    Ti 8.8500000000 5.1095500000 18.9790083779
    Ti 11.8000000000 5.1095500000 18.9790083779
    Ti 14.7500000000 5.1095500000 18.9790083779
    Ti 1.4750000000 7.6643250000 18.9790083779
    Ti 4.4250000000 7.6643250000 18.9790083779
    Ti 7.3750000000 7.6643250000 18.9790083779
    Ti 10.3250000000 7.6643250000 18.9790083779
    Ti 13.2750000000 7.6643250000 18.9790083779
    Ti 16.2250000000 7.6643250000 18.9790083779
    Ti 0.0000000000 10.2191000000 18.9790083779
    Ti 2.9500000000 10.2191000000 18.9790083779
    Ti 5.9000000000 10.2191000000 18.9790083779
    Ti 8.8500000000 10.2191000000 18.9790083779
    Ti 11.8000000000 10.2191000000 18.9790083779
    Ti 14.7500000000 10.2191000000 18.9790083779
    Ti 1.4750000000 12.7738750000 18.9790083779
    Ti 4.4250000000 12.7738750000 18.9790083779
    Ti 7.3750000000 12.7738750000 18.9790083779
    Ti 10.3250000000 12.7738750000 18.9790083779
    Ti 13.2750000000 12.7738750000 18.9790083779
    Ti 16.2250000000 12.7738750000 18.9790083779
    Ti 0.0000000000 1.7031833333 21.3190085201
    Ti 2.9500000000 1.7031833333 21.3190085201
    Ti 5.9000000000 1.7031833333 21.3190085201
    Ti 8.8500000000 1.7031833333 21.3190085201
    Ti 11.8000000000 1.7031833333 21.3190085201
    Ti 14.7500000000 1.7031833333 21.3190085201
    Ti 1.4750000000 4.2579583333 21.3190085201
    Ti 4.4250000000 4.2579583333 21.3190085201
    Ti 7.3750000000 4.2579583333 21.3190085201
    Ti 10.3250000000 4.2579583333 21.3190085201
    Ti 13.2750000000 4.2579583333 21.3190085201
    Ti 16.2250000000 4.2579583333 21.3190085201
    Ti 0.0000000000 6.8127333333 21.3190085201
    Ti 2.9500000000 6.8127333333 21.3190085201
    Ti 5.9000000000 6.8127333333 21.3190085201
    Ti 8.8500000000 6.8127333333 21.3190085201
    Ti 11.8000000000 6.8127333333 21.3190085201
    Ti 14.7500000000 6.8127333333 21.3190085201
    Ti 1.4750000000 9.3675083333 21.3190085201
    Ti 4.4250000000 9.3675083333 21.3190085201
    Ti 7.3750000000 9.3675083333 21.3190085201
    Ti 10.3250000000 9.3675083333 21.3190085201
    Ti 13.2750000000 9.3675083333 21.3190085201
    Ti 16.2250000000 9.3675083333 21.3190085201
    Ti 0.0000000000 11.9222833333 21.3190085201
    Ti 2.9500000000 11.9222833333 21.3190085201
    Ti 5.9000000000 11.9222833333 21.3190085201
    Ti 8.8500000000 11.9222833333 21.3190085201
    Ti 11.8000000000 11.9222833333 21.3190085201
    Ti 14.7500000000 11.9222833333 21.3190085201
    Ti 1.4750000000 14.4770583333 21.3190085201
    Ti 4.4250000000 14.4770583333 21.3190085201
    Ti 7.3750000000 14.4770583333 21.3190085201
    Ti 10.3250000000 14.4770583333 21.3190085201
    Ti 13.2750000000 14.4770583333 21.3190085201
    Ti 16.2250000000 14.4770583333 21.3190085201
    Ti 0.0000000000 0.0000000000 23.6590086622
    Ti 2.9500000000 0.0000000000 23.6590086622
    Ti 5.9000000000 0.0000000000 23.6590086622
    Ti 8.8500000000 0.0000000000 23.6590086622
    Ti 11.8000000000 0.0000000000 23.6590086622
    Ti 14.7500000000 0.0000000000 23.6590086622
    Ti 1.4750000000 2.5547750000 23.6590086622
    Ti 4.4250000000 2.5547750000 23.6590086622
    Ti 7.3750000000 2.5547750000 23.6590086622
    Ti 10.3250000000 2.5547750000 23.6590086622
    Ti 13.2750000000 2.5547750000 23.6590086622
    Ti 16.2250000000 2.5547750000 23.6590086622
    Ti 0.0000000000 5.1095500000 23.6590086622
    Ti 2.9500000000 5.1095500000 23.6590086622
    Ti 5.9000000000 5.1095500000 23.6590086622
    Ti 8.8500000000 5.1095500000 23.6590086622
    Ti 11.8000000000 5.1095500000 23.6590086622
    Ti 14.7500000000 5.1095500000 23.6590086622
    Ti 1.4750000000 7.6643250000 23.6590086622
    Ti 4.4250000000 7.6643250000 23.6590086622
    Ti 7.3750000000 7.6643250000 23.6590086622
    Ti 10.3250000000 7.6643250000 23.6590086622
    Ti 13.2750000000 7.6643250000 23.6590086622
    Ti 16.2250000000 7.6643250000 23.6590086622
    Ti 0.0000000000 10.2191000000 23.6590086622
    Ti 2.9500000000 10.2191000000 23.6590086622
    Ti 5.9000000000 10.2191000000 23.6590086622
    Ti 8.8500000000 10.2191000000 23.6590086622
    Ti 11.8000000000 10.2191000000 23.6590086622
    Ti 14.7500000000 10.2191000000 23.6590086622
    Ti 1.4750000000 12.7738750000 23.6590086622
    Ti 4.4250000000 12.7738750000 23.6590086622
    Ti 7.3750000000 12.7738750000 23.6590086622
    Ti 10.3250000000 12.7738750000 23.6590086622
    Ti 13.2750000000 12.7738750000 23.6590086622
    Ti 16.2250000000 12.7738750000 23.6590086622
    Ti 0.0000000000 1.7031833333 25.9990088044
    Ti 2.9500000000 1.7031833333 25.9990088044
    Ti 5.9000000000 1.7031833333 25.9990088044
    Ti 8.8500000000 1.7031833333 25.9990088044
    Ti 11.8000000000 1.7031833333 25.9990088044
    Ti 14.7500000000 1.7031833333 25.9990088044
    Ti 1.4750000000 4.2579583333 25.9990088044
    Ti 4.4250000000 4.2579583333 25.9990088044
    Ti 7.3750000000 4.2579583333 25.9990088044
    Ti 10.3250000000 4.2579583333 25.9990088044
    Ti 13.2750000000 4.2579583333 25.9990088044
    Ti 16.2250000000 4.2579583333 25.9990088044
    Ti 0.0000000000 6.8127333333 25.9990088044
    Ti 2.9500000000 6.8127333333 25.9990088044
    Ti 5.9000000000 6.8127333333 25.9990088044
    Ti 8.8500000000 6.8127333333 25.9990088044
    Ti 11.8000000000 6.8127333333 25.9990088044
    Ti 14.7500000000 6.8127333333 25.9990088044
    Ti 1.4750000000 9.3675083333 25.9990088044
    Ti 4.4250000000 9.3675083333 25.9990088044
    Ti 7.3750000000 9.3675083333 25.9990088044
    Ti 10.3250000000 9.3675083333 25.9990088044
    Ti 13.2750000000 9.3675083333 25.9990088044
    Ti 16.2250000000 9.3675083333 25.9990088044
    Ti 0.0000000000 11.9222833333 25.9990088044
    Ti 2.9500000000 11.9222833333 25.9990088044
    Ti 5.9000000000 11.9222833333 25.9990088044
    Ti 8.8500000000 11.9222833333 25.9990088044
    Ti 11.8000000000 11.9222833333 25.9990088044
    Ti 14.7500000000 11.9222833333 25.9990088044
    Ti 1.4750000000 14.4770583333 25.9990088044
    Ti 4.4250000000 14.4770583333 25.9990088044
    Ti 7.3750000000 14.4770583333 25.9990088044
    Ti 10.3250000000 14.4770583333 25.9990088044
    Ti 13.2750000000 14.4770583333 25.9990088044
    Ti 16.2250000000 14.4770583333 25.9990088044
    Ti 0.0000000000 0.0000000000 28.3390089466
    Ti 2.9500000000 0.0000000000 28.3390089466
    Ti 5.9000000000 0.0000000000 28.3390089466
    Ti 8.8500000000 0.0000000000 28.3390089466
    Ti 11.8000000000 0.0000000000 28.3390089466
    Ti 14.7500000000 0.0000000000 28.3390089466
    Ti 1.4750000000 2.5547750000 28.3390089466
    Ti 4.4250000000 2.5547750000 28.3390089466
    Ti 7.3750000000 2.5547750000 28.3390089466
    Ti 10.3250000000 2.5547750000 28.3390089466
    Ti 13.2750000000 2.5547750000 28.3390089466
    Ti 16.2250000000 2.5547750000 28.3390089466
    Ti 0.0000000000 5.1095500000 28.3390089466
    Ti 2.9500000000 5.1095500000 28.3390089466
    Ti 5.9000000000 5.1095500000 28.3390089466
    Ti 8.8500000000 5.1095500000 28.3390089466
    Ti 11.8000000000 5.1095500000 28.3390089466
    Ti 14.7500000000 5.1095500000 28.3390089466
    Ti 1.4750000000 7.6643250000 28.3390089466
    Ti 4.4250000000 7.6643250000 28.3390089466
    Ti 7.3750000000 7.6643250000 28.3390089466
    Ti 10.3250000000 7.6643250000 28.3390089466
    Ti 13.2750000000 7.6643250000 28.3390089466
    Ti 16.2250000000 7.6643250000 28.3390089466
    Ti 0.0000000000 10.2191000000 28.3390089466
    Ti 2.9500000000 10.2191000000 28.3390089466
    Ti 5.9000000000 10.2191000000 28.3390089466
    Ti 8.8500000000 10.2191000000 28.3390089466
    Ti 11.8000000000 10.2191000000 28.3390089466
    Ti 14.7500000000 10.2191000000 28.3390089466
    Ti 1.4750000000 12.7738750000 28.3390089466
    Ti 4.4250000000 12.7738750000 28.3390089466
    Ti 7.3750000000 12.7738750000 28.3390089466
    Ti 10.3250000000 12.7738750000 28.3390089466
    Ti 13.2750000000 12.7738750000 28.3390089466
    Ti 16.2250000000 12.7738750000 28.3390089466
    Ti 0.0000000000 1.7031833333 30.6790090887
    Ti 2.9500000000 1.7031833333 30.6790090887
    Ti 5.9000000000 1.7031833333 30.6790090887
    Ti 8.8500000000 1.7031833333 30.6790090887
    Ti 11.8000000000 1.7031833333 30.6790090887
    Ti 14.7500000000 1.7031833333 30.6790090887
    Ti 1.4750000000 4.2579583333 30.6790090887
    Ti 4.4250000000 4.2579583333 30.6790090887
    Ti 7.3750000000 4.2579583333 30.6790090887
    Ti 10.3250000000 4.2579583333 30.6790090887
    Ti 13.2750000000 4.2579583333 30.6790090887
    Ti 16.2250000000 4.2579583333 30.6790090887
    Ti 0.0000000000 6.8127333333 30.6790090887
    Ti 2.9500000000 6.8127333333 30.6790090887
    Ti 5.9000000000 6.8127333333 30.6790090887
    Ti 8.8500000000 6.8127333333 30.6790090887
    Ti 11.8000000000 6.8127333333 30.6790090887
    Ti 14.7500000000 6.8127333333 30.6790090887
    Ti 1.4750000000 9.3675083333 30.6790090887
    Ti 4.4250000000 9.3675083333 30.6790090887
    Ti 7.3750000000 9.3675083333 30.6790090887
    Ti 10.3250000000 9.3675083333 30.6790090887
    Ti 13.2750000000 9.3675083333 30.6790090887
    Ti 16.2250000000 9.3675083333 30.6790090887
    Ti 0.0000000000 11.9222833333 30.6790090887
    Ti 2.9500000000 11.9222833333 30.6790090887
    Ti 5.9000000000 11.9222833333 30.6790090887
    Ti 8.8500000000 11.9222833333 30.6790090887
    Ti 11.8000000000 11.9222833333 30.6790090887
    Ti 14.7500000000 11.9222833333 30.6790090887
    Ti 1.4750000000 14.4770583333 30.6790090887
    Ti 4.4250000000 14.4770583333 30.6790090887
    Ti 7.3750000000 14.4770583333 30.6790090887
    Ti 10.3250000000 14.4770583333 30.6790090887
    Ti 13.2750000000 14.4770583333 30.6790090887
    Ti 16.2250000000 14.4770583333 30.6790090887
    Si 7.3698099089 10.9621404265 12.5074241140
    Si 16.0270430113 2.7933934840 8.9728154987
    Si 2.2530695047 9.4397563035 8.3830839861
    Si 12.2601067448 6.0654474053 6.0054410369
    Si 5.0152690697 14.8649709925 4.0077061231
    Si 14.2651769706 11.1843738968 11.5500675807
    Si 2.9013661160 5.0277886063 13.1307760926
    Si 5.0780475981 10.9660699824 4.7767073338
    Si 4.9838318589 4.5041728658 6.3961621995
    Si 14.9050005910 13.5247598759 0.1086830213
    Si 4.7369514501 7.2695236997 3.5969481210
    Si 13.8024903866 7.0835515728 14.5904430890
    Si 0.7584545080 9.6992403209 2.6538576492
    Si 12.2183754585 10.2989609412 8.3125620753
    Si 14.7100446416 10.7418727519 13.8234553498
    Si 0.2902335334 2.1435343658 5.3452331370
    Si 5.5304162020 2.2159286668 10.8755952879
    Si 10.5909295469 8.9628679875 14.2306423659
    Si 7.2651843766 11.2980436336 1.6596731924
    Si 0.4880883606 8.8413112950 4.8297248794
    Si 7.4279933523 1.6360947218 15.1620184029
    Si 15.3680358665 6.3893419073 16.2390125448
    Si 7.6939822203 3.2477073004 3.8456613721
    Si 0.4616352026 0.2784823601 16.1733249016
    Si 12.5188161302 9.9682459570 0.5257140958
    Si 9.7861022671 7.4018633936 8.8999457720
    Si 4.4030259086 1.3285427817 5.3245367004
    Si 9.2372677023 12.3709787468 4.2105573721
    Si 1.2742846795 5.7634271924 4.8648991831
    Si 11.0506693453 8.9974201719 11.9343976314
    Si 16.3956042993 2.6299756333 3.6125496796
    Si 2.6323534041 7.5901827332 5.0476198744
    Si 15.6869101131 4.2314372096 16.4790082260
    Si 17.1172988693 3.6389311548 14.6096940187
    Si 3.4148680884 14.8461189252 13.9823546128
    Si 9.0558169058 12.8172282294 9.5361532983
    Si 5.0605921649 11.9055098816 15.2393597723
    Si 12.4447512861 15.1968010257 4.6078070537
    Si 11.9176805587 6.3372048412 1.1806376776
    Si 10.2380500638 9.0623255727 7.4606299459
    Si 13.8191765795 3.7486951257 8.6489059063
    Si 10.9946779606 15.0487114331 0.4027588169
    Si 7.6464900973 1.1355856573 11.6062078330
    Si 3.6223402199 14.2413014114 2.1299264816
    Si 1.9806019899 14.6327214991 7.2302412310
    Si 12.5545166374 3.5607954492 10.7469530121
    Si 6.2101893491 9.1867096320 9.1271718058
    Si 1.5512141379 0.0532167019 1.7572483946
    Si 6.1739573937 8.3756211525 16.4488955210
    Si 15.7493654484 7.2123617657 7.2640897587
    Si 13.4637943757 1.4672203855 3.3274570144
    Si 7.8577483027 9.9607962418 7.4716850165
    Si 10.2085950190 1.6170943426 1.3466664262
    Si 17.6122300456 5.8250461157 2.8648710207
    Si 15.3204282441 12.5068158586 6.6444606163
    Si 12.4884710938 14.0936846459 13.4643730032
    Si 15.7905087074 13.0144157542 11.1014524146
    Si 12.6934125315 13.5734221843 1.3173513715
    Si 6.5628073149 4.2258665180 10.7673408689
    Si 1.4606795316 2.3328783870 10.7293883643
    Si 14.2264100778 3.0596548676 4.8132185294
    Si 5.5226530158 13.1092555027 5.2354558370
    Si 3.6026577045 13.0312578402 6.7401670879
    Si 12.2999931223 2.7200766304 1.7100417768
    Si 13.3733537517 0.0871582778 11.8063795850
    Si 9.2572542441 6.0417108569 12.5351844068
    Si 10.9369934844 2.1592214289 13.7381772651
    Si 10.0227649053 12.1774857697 15.2034126239
    Si 3.4010534338 1.0762782170 7.4936051422
    Si 10.7255101669 2.5528081612 6.6356789872
    Si 7.4127535970 12.0636388757 7.9771146329
    Si 17.0065131804 14.6544095456 12.5109648017
    Si 6.8771618324 7.5039059840 4.8126542298
    Si 14.5711142646 6.4146855942 12.3980035606
    Si 8.2979645296 13.2547443028 2.0981168447
    Si 2.5505821360 2.4532107835 4.3571463231
    Si 2.9880006507 5.2607322474 0.6322497802
    Si 9.0360872970 13.8031997296 16.4424512362
    Si 13.0259875395 13.1919239265 3.6635824691
    Si 0.1256976760 12.1900774681 9.9314168831
    Si 4.1668449918 10.4659628727 9.4623222533
    Si 9.5424542093 4.7918874630 3.9938903786
    Si 16.8718139537 11.1631490958 7.9045302119
    Si 0.5245530351 8.9439536868 10.0403136943
    Si 15.7802340624 2.9536135943 12.7784490247
    Si 7.2277330621 1.3743577805 7.5435343373
    Si 17.1177922605 12.7134093918 2.9603980743
    Si 3.4451422480 10.3616677098 11.7667629133
    Si 13.7926621099 4.2979685620 12.6335409515
    Si 8.9954496091 2.9023761375 16.3892358517
    Si 2.4002538821 8.5733698495 1.3868909201
    Si 13.8888642414 12.6679730768 14.7469882781
    Si 11.5877457355 11.8308452686 4.9207192392
    Si 11.6823854617 1.6537182413 11.5133443047
    Si 7.1647589472 14.5196202483 12.5895673958
    Si 4.4016385933 5.2594686297 2.6405685204
    Si 8.7555945661 15.1086897127 6.7301438628
    Si 17.2997833039 10.6685926381 13.7795922784
    Si 1.1163038945 6.8769409990 10.5028250811
    Si 9.7559279681 6.9379898430 14.6856042567
    Si 1.6755441810 14.0179559587 9.5131580344
    Si 13.6754686522 5.9281879624 7.9386686986
    Si 2.5191231211 9.2919437736 15.7850768069
    Si 3.2875480689 4.4948998532 4.6011528083
    Si 1.0007141240 10.2902676869 6.5743958942
    Si 10.0666801705 14.6527595311 8.7205614750
    Si 9.8586422706 7.5154291554 1.7687500143
    Si 6.0632919937 4.5677974678 14.9467507806
    Si 15.3195135000 6.4980021795 3.5125665998
    Si 8.2048348767 6.9405344751 0.0290668920
    Si 10.2082891542 0.8204576738 5.1678867006
    Si 7.8599846634 13.1908312211 6.0045033811
    Si 2.6593764434 1.9844738015 2.0896274958
    Si 4.3647142455 8.0188554001 14.8075516896
    Si 8.5075107109 12.8359702309 11.8077842720
    Si 15.8585417543 14.7229249134 6.9845096705
    Si 6.3084350354 2.6956727461 5.8041269811
    Si 6.8564738716 10.4769836335 16.1032169733
    Si 5.4357198691 15.3073001200 0.9781447646
    Si 5.3710671230 7.2512770122 8.3928910467
    Si 4.8689466209 5.6532664658 9.9426164812
    Si 3.5080190095 4.5494546720 8.3475234034
    Si 0.3995630071 0.2901567025 10.6031625720
    Si 9.1754991382 6.9685422848 3.9735125765
    Si 17.1202908104 3.9390304032 1.8364818250
    Si 14.5044703261 9.8537445795 4.0483454015
    Si 9.7151580370 0.9979686329 10.2065807323
    Si 7.1214032450 15.1016905520 2.7116658049
    Si 11.3007086477 11.9075394294 9.5907711720
    Si 11.8176652178 5.9311599178 15.4134798248
    Si 14.2430693388 7.2278170847 1.5496989799
    Si 10.6821729278 9.5346676126 2.2265556696
    Si 0.1499672572 15.3032503465 5.6839859787
    Si 10.9552211223 7.9558267854 5.4508969112
    Si 15.7563382701 0.2274562854 0.2154361147
    Si 17.1079720260 3.6135387977 10.9422460364
    Si 11.9876108718 9.6978672782 4.2805401621
    Si 10.6842556276 5.0191595642 10.8130090371
    Si 15.6877518577 0.7808454808 2.5052762372
    Si 3.2381695858 12.1192702353 1.7015622597
    Si 13.0945210304 7.8712909059 11.1043472151
    Si 13.5283961062 0.1792914920 6.7052935450
    Si 16.1532601434 9.0959418295 8.6762347506
    Si 4.5816507248 8.4388918732 12.4289838864
    Si 2.6819661195 11.4369149341 5.4219918616
    Si 7.0666679010 9.6550872423 5.2334784588
    Si 1.1735395804 2.2566101898 15.3977811609
    Si 8.7484809186 5.7018166943 7.7235209982
    Si 8.5949228553 10.3760257656 3.4021797084
    Si 9.0094659797 7.8511630659 11.1414366492
    Si 5.0099816792 11.7646564010 12.8773350625
    Si 17.0332967611 5.7655475938 11.7263283021
    Si 14.3345450522 14.4755974742 9.9265972518
    Si 16.7929546256 9.9822236618 0.8504662095
    Si 17.6633793205 6.9481954009 15.5706795585
    Si 8.4959474954 2.4947482156 13.2778255130
    Si 11.9635421253 6.5638559246 9.5788873122
    Si 8.7004364123 4.3189493899 9.5137475765
    Si 15.1616753466 12.0339243075 4.2987153923
    Si 14.2063559020 1.1526135927 15.2825411350
    Si 2.7920354417 11.4478964683 16.0754188630
    Si 8.6995273607 10.4587258795 14.5141214580
    Si 7.4918858701 4.5057172556 12.9535381606
    Si 0.5948132469 12.2369044222 15.2451764647
    Si 5.2535701000 0.7630282308 9.0474995129
    Si 14.0624131834 9.5669874697 9.8720532672
    Si 5.0276175498 10.8111316384 2.4792639011
    Si 17.5986477336 5.5767675781 6.8725012397
    Si 11.7339605127 11.1601899501 11.7249964489
    Si 6.2445952753 3.8737218205 2.0411409593
    Si 1.5873544603 3.4346519965 0.7496788080
    Si 9.1779752566 2.4063175673 8.5265961384
    Si 6.5683928616 6.2148043246 6.6950919164
    Si 12.4927241154 14.0569412791 8.2877857123
    Si 4.2397135741 14.1362277464 9.9568498828
    Si 7.5985207851 4.7399141874 0.2353795347
    Si 5.1922516871 2.5516671881 15.4053098825
    Si 2.1197475577 2.7425516838 8.4729720642
    Si 17.6989761441 3.3573704863 7.3068294731
    Si 13.6068958664 3.0541408385 16.2729917686
    Si 1.7206239556 6.0945925924 8.3498431099
    Si 4.9496412716 12.4090038545 8.6393236837
    Si 10.6461415707 12.7168938128 13.0124468921
    Si 15.7759185817 8.1262845158 5.0528227303
    Si 13.2108727624 2.3742180241 6.8907726055
    Si 0.9537897364 14.2405595880 14.3545759526
    Si 4.9539294719 2.1348400605 1.1172969496
    Si 11.8869493388 0.3829962452 14.9304250105
    Si 4.7752449830 13.8828554417 12.2433934413
    Si 13.5243690591 5.0949761567 4.2652887504
    Si 12.1815234095 11.9782942686 16.3628322925
    Si 14.5696720818 9.3872927496 1.7172947257
    Si 5.1550186412 14.1177962688 15.5713903171
    Si 4.8238755290 8.7025054203 1.8692261382
    Si 13.0720325422 9.1980409606 14.9025202493
    Si 10.3258533452 4.6937409911 6.2044466526
    Si 12.8122178090 12.1356716210 7.0479155958
    Si 16.1091490896 0.5252571368 9.1017236274
    Si 16.7951167568 12.1740311807 0.6446053946
    Si 15.2493265342 0.8555874566 13.1159549935
    Si 1.5492522467 11.6594078713 3.3221803877
    Si 0.8688073294 10.6086998215 11.5945759350
    Si 17.4968811301 14.8108051553 3.3753228603
    Si 4.0358518927 5.8147970109 15.0968373990
    Si 3.4000705929 6.6193042376 11.5442774219
    Si 12.2658925759 3.9230809612 14.5118782908
    Si 3.3801531389 2.8937583289 12.1806961615
    Si 6.8846289165 9.0256707129 11.4066672360
    Si 7.4216459899 14.7942517274 14.9413918204
    Si 0.0566490824 9.1221252150 15.3985974677
    Si 0.5045833930 5.4643576621 13.8130083057
    Si 8.7934424353 1.3497901088 3.2823956043
    Si 3.2761358707 1.7336521404 14.1534679065
    Si 1.2103139089 6.7051098891 1.0514558976
    Si 11.7044835772 4.6531480768 2.6835933614
    Si 3.1316744236 7.6417514591 7.3898623720
