64
Lattice="5.4300000000 0.0000000000 0.0000000000 0.0000000000 5.4300000000 0.0000000000 0.0000000000 0.0000000000 54.2425000000" Properties=species:S:1:pos:R:3 pbc="T T T"
    Ti 0.0000000000 0.0000000000 22.8625000000
    Ti 3.1358500000 0.0000000000 22.8625000000
    Ti 1.5679250000 2.7157257625 22.8625000000
    Ti 4.7037750000 2.7157257625 22.8625000000
    Ti 0.0000000000 1.8104838416 25.2025000000
    Ti 3.1358500000 1.8104838416 25.2025000000
    Ti 1.5679250000 4.5262096041 25.2025000000
    Ti 4.7037750000 4.5262096041 25.2025000000
    Ti 0.0000000000 0.0000000000 27.5425000000
    Ti 3.1358500000 0.0000000000 27.5425000000
    Ti 1.5679250000 2.7157257625 27.5425000000
    Ti 4.7037750000 2.7157257625 27.5425000000
    Ti 1.5679250000 4.5262096041 29.8825000000
    Ti 4.7037750000 4.5262096041 29.8825000000
    Ti 0.0000000000 1.8104838416 29.8825000000
    Ti 3.1358500000 1.8104838416 29.8825000000
    Ti 0.0000000000 0.0000000000 32.2225000000
    Ti 3.1358500000 0.0000000000 32.2225000000
    Ti 1.5679250000 2.7157257625 32.2225000000
    Ti 4.7037750000 2.7157257625 32.2225000000
    Ti 4.7037750000 4.5262096041 34.5625000000
    Ti 1.5679250000 4.5262096041 34.5625000000
    Ti 0.0000000000 1.8104838416 34.5625000000
    Ti 3.1358500000 1.8104838416 34.5625000000
    Ti 0.0000000000 0.0000000000 36.9025000000
    Ti 3.1358500000 0.0000000000 36.9025000000
    Ti 1.5679250000 2.7157257625 36.9025000000
    Ti 4.7037750000 2.7157257625 36.9025000000
    Ti 1.5679250000 4.5262096041 39.2425000000
    Ti 0.0000000000 1.8104838416 39.2425000000
    Ti 3.1358500000 1.8104838416 39.2425000000
    Ti 4.7037750000 4.5262096041 39.2425000000
    Si 0.0000000000 0.0000000000 0.0000000000
    Si 2.7150000000 2.7150000000 0.0000000000
    Si 1.3575000000 1.3575000000 1.3575000000
    Si 4.0725000000 4.0725000000 1.3575000000
    Si 0.0000000000 2.7150000000 2.7150000000
    Si 2.7150000000 0.0000000000 2.7150000000
    Si 1.3575000000 4.0725000000 4.0725000000
    Si 4.0725000000 1.3575000000 4.0725000000
    Si 0.0000000000 0.0000000000 5.4300000000
    Si 2.7150000000 2.7150000000 5.4300000000
    Si 1.3575000000 1.3575000000 6.7875000000
    Si 4.0725000000 4.0725000000 6.7875000000
    Si 0.0000000000 2.7150000000 8.1450000000
    Si 2.7150000000 0.0000000000 8.1450000000
    Si 4.0725000000 1.3575000000 9.5025000000
    Si 1.3575000000 4.0725000000 9.5025000000
    Si 0.0000000000 0.0000000000 10.8600000000
    Si 2.7150000000 2.7150000000 10.8600000000
    Si 1.3575000000 1.3575000000 12.2175000000
    Si 4.0725000000 4.0725000000 12.2175000000
    Si 0.0000000000 2.7150000000 13.5750000000
    Si 2.7150000000 0.0000000000 13.5750000000
    Si 4.0725000000 1.3575000000 14.9325000000
    Si 1.3575000000 4.0725000000 14.9325000000
    Si 0.0000000000 0.0000000000 16.2900000000
    Si 2.7150000000 2.7150000000 16.2900000000
    Si 1.3575000000 1.3575000000 17.6475000000
    Si 4.0725000000 4.0725000000 17.6475000000
    Si 0.0000000000 2.7150000000 19.0050000000
    Si 2.7150000000 0.0000000000 19.0050000000
    Si 1.3575000000 4.0725000000 20.3625000000
    Si 4.0725000000 1.3575000000 20.3625000000
